80
Lattice="15.683995911905594 -0.10369229712330563 -0.059678243061744136 -1.402812143130435e-07 16.180556416773694 -0.12925063461212985 3.349886896086957e-08 1.4945013667391301e-07 11.356906592625478" Properties=species:S:1:pos:R:3 id=val_scf_068 REF_energy=-280.217512 REF_stress="-0.00442011469151504 -0.004422613617006787 -0.004593518476337014 -0.00011524917265850545 0.0001864855011121131 0.0002291120499665701" source_dir=10 natoms=80 pbc="T T T"
Cs       4.04395713       0.36481107       8.24737743
Cs       4.15767905       8.30135125       8.42614708
Cs      11.82041425       0.31436765       8.28213922
Cs      11.71687565       8.47978479       8.29704954
Cs       4.19494006       7.57413879       2.66240755
Cs       4.30278728      15.86923561       2.49622767
Cs      11.98758124       7.64317861       2.44294561
Cs      12.12933189      15.88087006       2.43428921
Cs       0.18652077       4.27341460       8.24828318
Cs       0.36516238      12.42820896       8.19491151
Cs       8.08182660       4.41275530       8.09358990
Cs       8.22673707      12.57149301       8.18895997
Cs       7.77816496       3.63577926       2.45700112
Cs       7.75502909      11.72055142       2.57711418
Cs      15.64168753       3.58568730       2.38943227
Cs       0.28674636      11.77742504       2.44186413
Pb       4.07263474       4.02904852       5.39342848
Pb       4.09865715      12.15362782       5.33827088
Pb      11.90664891       4.08574659       5.31920423
Pb      11.97000223      12.06673057       5.29206476
Pb       4.03591845       4.01158279      11.02142186
Pb       4.15752367      12.11394421      10.94888943
Pb      11.87492278       3.98704774      11.02727966
Pb      11.95881387      12.11936073      11.04728912
Pb       0.22742191      -0.02895047      11.13435222
Pb       0.11359052       8.07547351      10.97300682
Pb       8.05161123       0.00059368      11.16058056
Pb       8.02229870       8.05612915      11.08773548
Pb       0.14824732      16.18281077       5.34726951
Pb       0.15252886       8.10039996       5.30761638
Pb       8.08977481       0.00599843       5.48199164
Pb       7.99974101       8.11744951       5.36186804
Cl       6.25462744       5.83456688       0.01023184
Cl       6.51065077      13.77894235      -0.11296453
Cl      14.13588554       5.71730054       0.02134019
Cl      14.32481076      13.73764217       0.07319970
Cl       0.72853390       0.19045307       2.67854205
Cl       0.64456635       8.21738059       2.46416328
Cl       8.50393595       0.15734462       2.66273169
Cl       8.50444716       8.09047580       2.56404835
Cl       7.67142691       7.98962419       8.23480001
Cl       7.62344704      16.15852558       8.21529770
Cl      15.40936651       7.80034967       8.08354020
Cl      15.35541571      15.88359523       8.18226026
Cl       2.52435113       6.42103151       5.74553471
Cl       2.36176315      14.44426006       5.75547289
Cl      10.38319408       6.51738198       5.67794207
Cl      10.42303124      14.54273779       5.57123351
Cl       5.72414550       1.62960108       0.14498031
Cl       5.68186475       9.72286424       0.12815700
Cl      13.61489278       1.68704454      11.31587937
Cl      13.60452925       9.75195501      -0.08479257
Cl       1.80750828       2.31036428      10.64898187
Cl       1.89075269      10.40275326      10.61904165
Cl       9.58537244       2.35832582      10.68828700
Cl       9.69797710      10.42198109      10.72062070
Cl       6.36668691       5.69446619       4.99396663
Cl       6.43654967      13.85641620       5.07979638
Cl      14.22718302       5.67795764       4.76227543
Cl      14.23150440      13.69605424       4.81210684
Cl       5.73088970       1.69764694       5.11233007
Cl       5.71811854       9.77587658       4.92269715
Cl      13.62392884       1.79367677       5.18109090
Cl      13.48402857       9.62569513       4.97552339
Cl       2.32235988       6.22001543      10.61870978
Cl       2.49520213      14.43351148      10.57022113
Cl      10.26224436       6.33663537      10.79645393
Cl      10.39460631      14.51407994      10.67236827
Cl       3.57608365       3.97205509       2.55847125
Cl       3.76566745      12.34113503       2.45227616
Cl      11.44591520       3.96488995       2.49871230
Cl      11.44211705      12.17386071       2.50289337
Cl       1.85761071       2.25791861       5.86242082
Cl       1.80572879      10.45750161       5.62162530
Cl       9.63864888       2.38426945       5.75199142
Cl       9.49280135      10.49928766       5.71065669
Cl       4.56319472       3.95578257       8.25137100
Cl       4.47336359      11.98276739       8.12227950
Cl      12.24839701       4.01513873       8.19068378
Cl      12.31865589      12.05760535       8.17022703
